letting n_nurses=25
letting n_days=7
letting n_shift_types=4
letting max_covers=13
letting t_covers=87
letting covers=[2,11,0,0,0,2,13,0,2,13,0,0,6,0,1,0,0,1,8,0,2,12,0,0,2,12,0,0]
letting prefes=[2,2,3,2,3,1,3,3,2,1,2,2,1,1,1,1,2,2,1,1,1,2,2,2,3,1,3,3,2,2,1,2,1,1,1,1,2,2,2,2,3,1,1,3,2,2,2,1,2,2,1,4,1,1,1,1,2,2,1,2,3,1,3,3,1,1,1,1,3,1,1,3,2,2,1,1,2,2,1,2,3,1,3,3,2,2,1,2,3,1,3,3,2,3,2,2,3,3,3,3,2,2,2,1,2,2,2,2,3,1,3,3,2,2,1,2,1,1,1,1,1,1,1,1,3,1,3,1,1,1,2,1,1,2,2,2,1,1,1,1,1,1,1,1,3,1,3,3,2,1,2,2,1,1,3,3,2,2,2,1,2,1,1,2,3,1,3,3,2,2,1,2,3,2,3,3,2,2,2,2,3,1,3,1,2,2,2,2,2,2,2,4,3,2,3,3,1,1,1,1,1,1,1,1,2,1,2,2,3,3,3,3,2,2,2,1,2,2,2,2,1,1,1,1,2,2,1,2,3,1,3,3,2,1,2,2,1,1,3,3,2,1,2,1,2,2,1,2,3,1,3,3,2,2,3,2,3,1,3,3,2,1,2,2,3,1,3,3,2,2,2,1,2,1,2,4,3,1,3,3,2,2,1,2,3,1,3,3,1,1,1,1,3,1,3,1,1,1,2,1,1,2,2,2,3,1,3,3,1,1,1,1,3,1,3,3,2,1,2,2,3,1,3,3,2,2,2,1,2,2,2,4,3,1,3,3,2,2,1,2,3,1,3,3,2,1,2,2,3,1,3,3,2,2,2,1,2,2,2,2,3,1,3,3,2,2,1,2,3,2,3,3,2,1,1,1,3,1,3,3,2,2,2,2,2,2,2,2,3,2,3,3,2,2,1,2,3,1,3,3,2,1,2,2,3,1,1,3,1,1,2,1,2,1,2,2,3,1,3,3,2,2,3,2,3,1,3,3,1,1,1,1,3,3,3,3,1,1,1,1,1,2,2,2,3,1,3,3,2,2,1,2,3,1,3,3,2,3,2,2,1,1,1,3,2,2,2,1,2,2,2,2,3,1,3,3,2,2,3,2,3,2,3,3,2,1,2,2,3,3,3,3,2,2,2,2,2,2,1,2,3,2,3,3,1,1,1,1,3,2,3,3,1,1,2,2,3,1,3,3,2,2,2,2,2,2,2,2,3,2,3,3,2,2,1,2,3,1,3,3,2,3,2,2,3,1,3,3,2,2,2,1,2,2,2,2,3,1,3,3,2,2,1,2,1,1,1,1,2,1,2,2,3,3,3,3,1,2,2,1,1,2,2,2,1,1,1,1,2,2,3,2,3,1,3,3,2,1,2,2,1,1,3,3,2,2,1,1,2,1,2,2,3,1,3,3,2,2,1,2,3,2,3,3,2,1,2,2,3,1,3,1,2,2,2,2,2,1,2,2,3,2,3,3,2,2,1,2,1,1,1,1,2,1,2,2,3,1,3,3,2,2,2,1,2,2,2,2,1,1,1,1,1,1,1,1,3,1,3,3,2,1,2,2,3,1,3,3,2,2,1,1,2,2,2,4,3,1,3,3]
letting ub =  250
